c Result of efficient AIG-to-CNF conversion using package CNF
p cnf 634 2315
2 602 -400 0
2 602 -3 0
2 602 -483 0
-2 -602 0
-2 3 400 483 0
-3 -246 277 0
-3 -4 277 0
-3 247 277 0
3 -277 0
3 4 246 -247 0
-4 630 5 133 0
-4 5 72 133 0
4 -133 0
4 -5 0
4 -630 -72 0
5 631 -6 0
5 -631 -47 0
-5 -631 47 0
-5 631 6 0
6 632 -7 0
6 -632 -34 0
-6 -632 34 0
-6 632 7 0
7 633 -8 0
7 -633 -28 0
-7 -633 28 0
-7 633 8 0
8 -599 9 -16 20 0
-8 -20 0
-8 599 0
-8 16 0
-8 -9 0
-9 10 11 12 13 0
9 -13 0
9 -10 0
9 -12 0
9 -11 0
-10 605 606 0
10 -605 0
10 -606 0
-11 603 604 0
11 -603 0
11 -604 0
-12 615 616 617 0
12 -615 0
12 -617 0
12 -616 0
-13 607 608 14 15 0
13 -607 0
13 -15 0
13 -14 0
13 -608 0
-14 613 614 0
14 -613 0
14 -614 0
-15 609 610 611 612 0
15 -612 0
15 -611 0
15 -609 0
15 -610 0
16 630 -17 0
-16 -630 0
-16 17 0
17 631 -18 0
-17 -631 0
-17 18 0
18 632 -19 0
18 -601 -632 633 0
-18 601 -632 0
-18 632 19 0
-18 -632 -633 0
-19 599 633 0
-19 600 -633 0
19 -600 -633 0
19 -599 633 0
-20 602 21 0
20 -602 0
20 -21 0
-21 629 22 27 0
21 -27 0
21 -22 0
21 -629 0
-22 618 619 23 0
22 -23 0
22 -619 0
22 -618 0
-23 24 25 0
23 -24 0
23 -25 0
-24 620 621 0
24 -620 0
24 -621 0
-25 622 623 625 26 0
25 -26 0
25 -625 0
25 -622 0
25 -623 0
-26 624 626 0
26 -624 0
26 -626 0
-27 627 628 0
27 -627 0
27 -628 0
28 -598 9 20 -29 0
-28 29 0
-28 598 0
-28 -20 0
-28 -9 0
29 630 -30 0
-29 -630 0
-29 30 0
30 631 -31 0
-30 -631 0
-30 31 0
31 -632 -33 0
31 632 -32 0
-31 632 32 0
-31 -632 33 0
-32 598 633 0
-32 599 -633 0
32 -599 -633 0
32 -598 633 0
-33 600 633 0
-33 601 -633 0
33 -601 -633 0
33 -600 633 0
34 633 -35 0
34 -633 -41 0
-34 -633 41 0
-34 633 35 0
35 -597 9 20 -36 0
-35 36 0
-35 597 0
-35 -20 0
-35 -9 0
36 630 -37 0
-36 -630 0
-36 37 0
37 631 -39 0
37 -631 632 -38 0
-37 -631 -632 0
-37 631 39 0
-37 -631 38 0
38 -601 633 0
-38 601 0
-38 -633 0
39 632 -40 0
39 -632 -19 0
-39 -632 19 0
-39 632 40 0
-40 597 633 0
-40 598 -633 0
40 -598 -633 0
40 -597 633 0
41 -596 9 20 -42 0
-41 42 0
-41 596 0
-41 -20 0
-41 -9 0
42 630 -43 0
-42 -630 0
-42 43 0
43 631 -44 0
43 -631 -46 0
-43 -631 46 0
-43 631 44 0
44 632 -45 0
44 -632 -32 0
-44 -632 32 0
-44 632 45 0
-45 596 633 0
-45 597 -633 0
45 -597 -633 0
45 -596 633 0
46 -600 632 633 0
46 -601 632 -633 0
-46 -632 0
-46 601 -633 0
-46 600 633 0
47 632 -48 0
47 -632 -59 0
-47 -632 59 0
-47 632 48 0
48 633 -49 0
48 -633 -54 0
-48 -633 54 0
-48 633 49 0
49 -595 9 20 -50 0
-49 50 0
-49 595 0
-49 -20 0
-49 -9 0
50 630 -51 0
-50 -630 0
-50 51 0
51 -631 -18 0
51 631 -52 0
-51 631 52 0
-51 -631 18 0
52 632 -53 0
52 -632 -40 0
-52 -632 40 0
-52 632 53 0
-53 595 633 0
-53 596 -633 0
53 -596 -633 0
53 -595 633 0
54 -594 9 20 -55 0
-54 55 0
-54 594 0
-54 -20 0
-54 -9 0
55 630 -56 0
-55 -630 0
-55 56 0
56 -631 -31 0
56 631 -57 0
-56 631 57 0
-56 -631 31 0
57 632 -58 0
57 -632 -45 0
-57 -632 45 0
-57 632 58 0
-58 594 633 0
-58 595 -633 0
58 -595 -633 0
58 -594 633 0
59 633 -60 0
59 -633 -66 0
-59 -633 66 0
-59 633 60 0
60 -593 9 20 -61 0
-60 61 0
-60 593 0
-60 -20 0
-60 -9 0
61 630 -62 0
61 -630 -65 0
-61 -630 65 0
-61 630 62 0
62 -631 -39 0
62 631 -63 0
-62 631 63 0
-62 -631 39 0
63 632 -64 0
63 -632 -53 0
-63 -632 53 0
-63 632 64 0
-64 593 633 0
-64 594 -633 0
64 -594 -633 0
64 -593 633 0
65 -601 631 632 633 0
-65 -633 0
-65 -632 0
-65 601 0
-65 -631 0
66 -592 9 20 -67 0
-66 67 0
-66 592 0
-66 -20 0
-66 -9 0
67 630 -68 0
67 -630 -71 0
-67 -630 71 0
-67 630 68 0
68 -631 -44 0
68 631 -69 0
-68 631 69 0
-68 -631 44 0
69 632 -70 0
69 -632 -58 0
-69 -632 58 0
-69 632 70 0
-70 592 633 0
-70 593 -633 0
70 -593 -633 0
70 -592 633 0
71 631 -46 0
-71 -631 0
-71 46 0
72 631 -73 0
72 -631 -97 0
-72 -631 97 0
-72 631 73 0
73 632 -74 0
73 -632 -85 0
-73 -632 85 0
-73 632 74 0
74 633 -75 0
74 -633 -80 0
-74 -633 80 0
-74 633 75 0
75 -591 9 20 -76 0
-75 76 0
-75 591 0
-75 -20 0
-75 -9 0
76 -630 -17 0
76 630 -77 0
-76 630 77 0
-76 -630 17 0
77 -631 -52 0
77 631 -78 0
-77 631 78 0
-77 -631 52 0
78 632 -79 0
78 -632 -64 0
-78 -632 64 0
-78 632 79 0
-79 591 633 0
-79 592 -633 0
79 -592 -633 0
79 -591 633 0
80 -590 9 20 -81 0
-80 81 0
-80 590 0
-80 -20 0
-80 -9 0
81 -630 -30 0
81 630 -82 0
-81 630 82 0
-81 -630 30 0
82 -631 -57 0
82 631 -83 0
-82 631 83 0
-82 -631 57 0
83 632 -84 0
83 -632 -70 0
-83 -632 70 0
-83 632 84 0
-84 590 633 0
-84 591 -633 0
84 -591 -633 0
84 -590 633 0
85 633 -86 0
85 -633 -91 0
-85 -633 91 0
-85 633 86 0
86 -589 9 20 -87 0
-86 87 0
-86 589 0
-86 -20 0
-86 -9 0
87 -630 -37 0
87 630 -88 0
-87 630 88 0
-87 -630 37 0
88 -631 -63 0
88 631 -89 0
-88 631 89 0
-88 -631 63 0
89 632 -90 0
89 -632 -79 0
-89 -632 79 0
-89 632 90 0
-90 589 633 0
-90 590 -633 0
90 -590 -633 0
90 -589 633 0
91 -588 602 92 -93 0
-91 93 0
-91 588 0
-91 -92 0
-91 -602 0
-92 9 21 0
92 -9 0
92 -21 0
93 -630 -43 0
93 630 -94 0
-93 630 94 0
-93 -630 43 0
94 -631 -69 0
94 631 -95 0
-94 631 95 0
-94 -631 69 0
95 632 -96 0
95 -632 -84 0
-95 -632 84 0
-95 632 96 0
-96 588 633 0
-96 589 -633 0
96 -589 -633 0
96 -588 633 0
97 632 -98 0
97 -632 -109 0
-97 -632 109 0
-97 632 98 0
98 633 -99 0
98 -633 -104 0
-98 -633 104 0
-98 633 99 0
99 -587 602 92 -100 0
-99 100 0
-99 587 0
-99 -92 0
-99 -602 0
100 -630 -51 0
100 630 -101 0
-100 630 101 0
-100 -630 51 0
101 -631 -78 0
101 631 -102 0
-101 631 102 0
-101 -631 78 0
102 632 -103 0
102 -632 -90 0
-102 -632 90 0
-102 632 103 0
-103 587 633 0
-103 588 -633 0
103 -588 -633 0
103 -587 633 0
104 -586 602 92 -105 0
-104 105 0
-104 586 0
-104 -92 0
-104 -602 0
105 -630 -56 0
105 630 -106 0
-105 630 106 0
-105 -630 56 0
106 -631 -83 0
106 631 -107 0
-106 631 107 0
-106 -631 83 0
107 632 -108 0
107 -632 -96 0
-107 -632 96 0
-107 632 108 0
-108 586 633 0
-108 587 -633 0
108 -587 -633 0
108 -586 633 0
109 633 -110 0
109 -633 -126 0
-109 -633 126 0
-109 633 110 0
110 -585 602 111 -120 0
-110 -111 0
-110 120 0
-110 585 0
-110 -602 0
-111 112 24 113 119 0
111 -119 0
111 -112 0
111 -113 0
111 -24 0
-112 609 610 0
112 -609 0
112 -610 0
-113 114 118 0
113 -114 0
113 -118 0
-114 115 116 0
114 -115 0
114 -116 0
-115 607 608 10 0
115 -10 0
115 -608 0
115 -607 0
-116 12 117 0
116 -12 0
116 -117 0
-117 611 612 14 0
117 -14 0
117 -612 0
117 -611 0
-118 618 619 11 0
118 -11 0
118 -619 0
118 -618 0
-119 25 27 0
119 -25 0
119 -27 0
-120 629 121 0
-120 -629 125 0
120 -629 -125 0
120 629 -121 0
-121 630 122 0
-121 -630 62 0
121 -630 -62 0
121 630 -122 0
122 -631 -89 0
122 631 -123 0
-122 631 123 0
-122 -631 89 0
123 632 -124 0
123 -632 -103 0
-123 -632 103 0
-123 632 124 0
-124 585 633 0
-124 586 -633 0
124 -586 -633 0
124 -585 633 0
125 630 -65 0
-125 -630 0
-125 65 0
126 -584 602 -127 131 0
-126 -131 0
-126 127 0
-126 584 0
-126 -602 0
-127 629 -630 68 0
-127 629 630 128 0
127 -629 0
127 -630 -68 0
127 630 -128 0
128 -631 -95 0
128 631 -129 0
-128 631 129 0
-128 -631 95 0
129 632 -130 0
129 -632 -108 0
-129 -632 108 0
-129 632 130 0
-130 584 633 0
-130 585 -633 0
130 -585 -633 0
130 -584 633 0
-131 629 111 0
-131 111 -132 0
131 -111 0
131 -629 132 0
132 630 -71 0
-132 -630 0
-132 71 0
133 -629 -134 0
-133 629 0
-133 134 0
134 630 -135 0
134 -630 -194 0
-134 -630 194 0
-134 630 135 0
135 631 -136 0
135 -631 -163 0
-135 -631 163 0
-135 631 136 0
136 632 -137 0
136 -632 -150 0
-136 -632 150 0
-136 632 137 0
137 633 -138 0
137 -633 -144 0
-137 -633 144 0
-137 633 138 0
138 -583 602 111 -139 0
-138 -111 0
-138 139 0
-138 583 0
-138 -602 0
-139 -629 16 0
-139 629 140 0
139 -629 -16 0
139 629 -140 0
-140 630 141 0
-140 -630 77 0
140 -630 -77 0
140 630 -141 0
141 -631 -102 0
141 631 -142 0
-141 631 142 0
-141 -631 102 0
142 632 -143 0
142 -632 -124 0
-142 -632 124 0
-142 632 143 0
-143 583 633 0
-143 584 -633 0
143 -584 -633 0
143 -583 633 0
144 -582 602 111 -145 0
-144 -111 0
-144 145 0
-144 582 0
-144 -602 0
-145 -629 29 0
-145 629 146 0
145 -629 -29 0
145 629 -146 0
-146 630 147 0
-146 -630 82 0
146 -630 -82 0
146 630 -147 0
147 -631 -107 0
147 631 -148 0
-147 631 148 0
-147 -631 107 0
148 632 -149 0
148 -632 -130 0
-148 -632 130 0
-148 632 149 0
-149 582 633 0
-149 583 -633 0
149 -583 -633 0
149 -582 633 0
150 633 -151 0
150 -633 -157 0
-150 -633 157 0
-150 633 151 0
151 -581 602 111 -152 0
-151 -111 0
-151 152 0
-151 581 0
-151 -602 0
-152 -629 36 0
-152 629 153 0
152 -629 -36 0
152 629 -153 0
-153 630 154 0
-153 -630 88 0
153 -630 -88 0
153 630 -154 0
154 -631 -123 0
154 631 -155 0
-154 631 155 0
-154 -631 123 0
155 632 -156 0
155 -632 -143 0
-155 -632 143 0
-155 632 156 0
-156 581 633 0
-156 582 -633 0
156 -582 -633 0
156 -581 633 0
157 -580 602 111 -158 0
-157 -111 0
-157 158 0
-157 580 0
-157 -602 0
-158 -629 42 0
-158 629 159 0
158 -629 -42 0
158 629 -159 0
-159 630 160 0
-159 -630 94 0
159 -630 -94 0
159 630 -160 0
160 -631 -129 0
160 631 -161 0
-160 631 161 0
-160 -631 129 0
161 632 -162 0
161 -632 -149 0
-161 -632 149 0
-161 632 162 0
-162 580 633 0
-162 581 -633 0
162 -581 -633 0
162 -580 633 0
163 632 -164 0
163 -632 -177 0
-163 -632 177 0
-163 632 164 0
164 633 -165 0
164 -633 -171 0
-164 -633 171 0
-164 633 165 0
165 -579 602 111 -166 0
-165 -111 0
-165 166 0
-165 579 0
-165 -602 0
-166 -629 50 0
-166 629 167 0
166 -629 -50 0
166 629 -167 0
-167 630 168 0
-167 -630 101 0
167 -630 -101 0
167 630 -168 0
168 -631 -142 0
168 631 -169 0
-168 631 169 0
-168 -631 142 0
169 632 -170 0
169 -632 -156 0
-169 -632 156 0
-169 632 170 0
-170 579 633 0
-170 580 -633 0
170 -580 -633 0
170 -579 633 0
171 -578 602 111 -172 0
-171 -111 0
-171 172 0
-171 578 0
-171 -602 0
-172 -629 55 0
-172 629 173 0
172 -629 -55 0
172 629 -173 0
-173 630 174 0
-173 -630 106 0
173 -630 -106 0
173 630 -174 0
174 -631 -148 0
174 631 -175 0
-174 631 175 0
-174 -631 148 0
175 632 -176 0
175 -632 -162 0
-175 -632 162 0
-175 632 176 0
-176 578 633 0
-176 579 -633 0
176 -579 -633 0
176 -578 633 0
177 633 -178 0
177 -633 -184 0
-177 -633 184 0
-177 633 178 0
178 -577 602 111 -179 0
-178 -111 0
-178 179 0
-178 577 0
-178 -602 0
-179 -629 61 0
-179 629 180 0
179 -629 -61 0
179 629 -180 0
-180 -630 122 0
-180 630 181 0
180 -630 -122 0
180 630 -181 0
-181 631 182 0
-181 -631 155 0
181 -631 -155 0
181 631 -182 0
182 632 -183 0
182 -632 -170 0
-182 -632 170 0
-182 632 183 0
-183 577 633 0
-183 578 -633 0
183 -578 -633 0
183 -577 633 0
184 629 -185 -190 0
184 -629 -67 -185 0
-184 185 0
-184 -629 67 0
-184 629 190 0
185 22 -186 187 188 0
-185 -188 0
-185 -22 0
-185 -187 0
-185 186 0
186 -576 602 11 116 0
-186 -116 0
-186 576 0
-186 -11 0
-186 -602 0
-187 608 609 0
187 -608 0
187 -609 0
-188 27 189 0
188 -27 0
188 -189 0
-189 607 610 10 0
189 -10 0
189 -610 0
189 -607 0
190 -630 -128 0
190 630 -191 0
-190 630 191 0
-190 -630 128 0
191 -631 -161 0
191 631 -192 0
-191 631 192 0
-191 -631 161 0
192 632 -193 0
192 -632 -176 0
-192 -632 176 0
-192 632 193 0
-193 576 633 0
-193 577 -633 0
193 -577 -633 0
193 -576 633 0
194 631 -195 0
194 -631 -230 0
-194 -631 230 0
-194 631 195 0
195 632 -196 0
195 -632 -213 0
-195 -632 213 0
-195 632 196 0
196 633 -197 0
196 -633 -205 0
-196 -633 205 0
-196 633 197 0
197 -629 -76 -202 0
197 629 -198 -202 0
-197 202 0
-197 -629 76 0
-197 629 198 0
198 -630 -141 0
198 630 -199 0
-198 630 199 0
-198 -630 141 0
199 -631 -169 0
199 631 -200 0
-199 631 200 0
-199 -631 169 0
200 632 -201 0
200 -632 -183 0
-200 -632 183 0
-200 632 201 0
-201 575 633 0
-201 576 -633 0
201 -576 -633 0
201 -575 633 0
202 -575 23 203 204 0
-202 -204 0
-202 575 0
-202 -203 0
-202 -23 0
-203 14 27 115 0
203 -14 0
203 -27 0
203 -115 0
-204 602 12 15 118 0
204 -602 0
204 -118 0
204 -15 0
204 -12 0
205 -629 210 -212 0
205 -206 210 -212 0
-205 212 0
-205 -210 0
-205 629 206 0
206 -630 -147 0
206 630 -207 0
-206 630 207 0
-206 -630 147 0
207 -631 -175 0
207 631 -208 0
-207 631 208 0
-207 -631 175 0
208 632 -209 0
208 -632 -193 0
-208 -632 193 0
-208 632 209 0
-209 574 633 0
-209 575 -633 0
209 -575 -633 0
209 -574 633 0
-210 602 11 22 211 0
210 -602 0
210 -211 0
210 -22 0
210 -11 0
-211 608 609 116 189 0
211 -608 0
211 -189 0
211 -116 0
211 -609 0
212 -574 629 27 0
212 -574 27 -81 0
-212 574 0
-212 -27 0
-212 -629 81 0
213 633 -214 0
213 -633 -224 0
-213 -633 224 0
-213 633 214 0
214 -573 215 -219 0
-214 573 0
-214 -215 0
-214 219 0
-215 188 216 217 218 0
215 -218 0
215 -188 0
215 -217 0
215 -216 0
-216 602 11 117 187 0
216 -602 0
216 -187 0
216 -117 0
216 -11 0
-217 619 23 0
217 -619 0
217 -23 0
-218 618 12 0
218 -618 0
218 -12 0
-219 -629 87 0
-219 629 220 0
219 -629 -87 0
219 629 -220 0
-220 -630 154 0
-220 630 221 0
220 -630 -154 0
220 630 -221 0
-221 -631 182 0
-221 631 222 0
221 -631 -182 0
221 631 -222 0
-222 -632 201 0
-222 632 223 0
222 632 -223 0
222 -632 -201 0
-223 573 633 0
-223 574 -633 0
223 -574 -633 0
223 -573 633 0
224 -629 -93 -229 0
224 629 -225 -229 0
-224 229 0
-224 -629 93 0
-224 629 225 0
225 -630 -160 0
225 630 -226 0
-225 630 226 0
-225 -630 160 0
226 -631 -192 0
226 631 -227 0
-226 631 227 0
-226 -631 192 0
227 632 -228 0
227 -632 -209 0
-227 -632 209 0
-227 632 228 0
-228 572 633 0
-228 573 -633 0
228 -573 -633 0
228 -572 633 0
229 -572 215 0
-229 572 0
-229 -215 0
230 632 -231 0
-230 -632 0
-230 231 0
231 633 -232 0
231 -633 -239 0
-231 -633 239 0
-231 633 232 0
232 -629 -100 -238 0
232 629 -233 -238 0
-232 238 0
-232 -629 100 0
-232 629 233 0
233 -630 -168 0
233 630 -234 0
-233 630 234 0
-233 -630 168 0
234 -631 -200 0
234 631 -235 0
-234 631 235 0
-234 -631 200 0
235 632 -237 0
235 -632 -223 0
235 632 -236 0
-235 -632 223 0
-235 632 236 237 0
236 -571 633 0
-236 571 0
-236 -633 0
237 -572 -633 0
-237 572 0
-237 633 0
238 -571 215 0
-238 571 0
-238 -215 0
239 -629 -105 -245 0
239 629 -240 -245 0
-239 245 0
-239 -629 105 0
-239 629 240 0
240 -630 -174 0
240 630 -241 0
-240 630 241 0
-240 -630 174 0
241 -631 -208 0
241 631 -242 0
-241 631 242 0
-241 -631 208 0
242 632 -244 0
242 -632 -228 0
242 632 -243 0
-242 -632 228 0
-242 632 243 244 0
243 -570 633 0
-243 570 0
-243 -633 0
244 -571 -633 0
-244 571 0
-244 633 0
245 -570 215 0
-245 570 0
-245 -215 0
-246 618 619 24 119 0
246 -618 0
246 -119 0
246 -24 0
246 -619 0
247 -629 -248 -264 0
247 629 -248 -249 0
-247 248 0
-247 -629 264 0
-247 629 249 0
248 -599 9 0
-248 599 0
-248 -9 0
-249 630 250 0
-249 -630 257 0
249 -630 -257 0
249 630 -250 0
-250 631 251 0
-250 -631 254 0
250 -631 -254 0
250 631 -251 0
-251 -632 252 0
-251 632 253 0
251 632 -253 0
251 -632 -252 0
-252 597 633 0
-252 596 -633 0
252 -597 633 0
252 -596 -633 0
-253 599 633 0
-253 598 -633 0
253 -599 633 0
253 -598 -633 0
254 -632 -256 0
254 632 -255 0
-254 632 255 0
-254 -632 256 0
-255 595 633 0
-255 594 -633 0
255 -595 633 0
255 -594 -633 0
-256 593 633 0
-256 592 -633 0
256 -593 633 0
256 -592 -633 0
257 631 -258 0
257 -631 -261 0
-257 -631 261 0
-257 631 258 0
258 -632 -260 0
258 632 -259 0
-258 632 259 0
-258 -632 260 0
-259 591 633 0
-259 590 -633 0
259 -591 633 0
259 -590 -633 0
-260 589 633 0
-260 588 -633 0
260 -589 633 0
260 -588 -633 0
261 -632 -263 0
261 632 -262 0
-261 632 262 0
-261 -632 263 0
-262 587 633 0
-262 586 -633 0
262 -587 633 0
262 -586 -633 0
-263 585 633 0
-263 584 -633 0
263 -585 633 0
263 -584 -633 0
264 630 -265 0
264 -630 -272 0
-264 -630 272 0
-264 630 265 0
265 631 -266 0
265 -631 -269 0
-265 -631 269 0
-265 631 266 0
266 -632 -268 0
266 632 -267 0
-266 632 267 0
-266 -632 268 0
-267 583 633 0
-267 582 -633 0
267 -583 633 0
267 -582 -633 0
-268 581 633 0
-268 580 -633 0
268 -581 633 0
268 -580 -633 0
269 -632 -271 0
269 632 -270 0
-269 632 270 0
-269 -632 271 0
-270 579 633 0
-270 578 -633 0
270 -579 633 0
270 -578 -633 0
-271 577 633 0
-271 576 -633 0
271 -577 633 0
271 -576 -633 0
272 631 -273 0
272 -631 -276 0
-272 -631 276 0
-272 631 273 0
273 -632 -275 0
273 632 -274 0
-273 632 274 0
-273 -632 275 0
-274 575 633 0
-274 574 -633 0
274 -575 633 0
274 -574 -633 0
-275 573 633 0
-275 572 -633 0
275 -573 633 0
275 -572 -633 0
276 -570 632 -633 0
276 -571 632 633 0
-276 -632 0
-276 570 -633 0
-276 571 633 0
-277 -278 323 373 0
-277 301 323 373 0
277 -373 0
277 -323 0
277 278 -301 0
278 -629 111 -294 0
278 629 111 -279 0
-278 -111 0
-278 -629 294 0
-278 629 279 0
279 630 -280 0
279 -630 -287 0
-279 -630 287 0
-279 630 280 0
280 631 -281 0
280 -631 -284 0
-280 -631 284 0
-280 631 281 0
281 632 -282 0
281 -632 -283 0
-281 -632 283 0
-281 632 282 0
282 633 -80 0
282 -633 -86 0
-282 -633 86 0
-282 633 80 0
283 633 -91 0
283 -633 -99 0
-283 -633 99 0
-283 633 91 0
284 632 -285 0
284 -632 -286 0
-284 -632 286 0
-284 632 285 0
285 633 -104 0
285 -633 -110 0
-285 -633 110 0
-285 633 104 0
286 633 -126 0
286 -633 -138 0
-286 -633 138 0
-286 633 126 0
287 631 -288 0
287 -631 -291 0
-287 -631 291 0
-287 631 288 0
288 632 -289 0
288 -632 -290 0
-288 -632 290 0
-288 632 289 0
289 633 -144 0
289 -633 -151 0
-289 -633 151 0
-289 633 144 0
290 633 -157 0
290 -633 -165 0
-290 -633 165 0
-290 633 157 0
291 632 -292 0
291 -632 -293 0
-291 -632 293 0
-291 632 292 0
292 633 -171 0
292 -633 -178 0
-292 -633 178 0
-292 633 171 0
293 633 -184 0
293 -633 -197 0
-293 -633 197 0
-293 633 184 0
294 630 -295 0
-294 -630 0
-294 295 0
295 631 -296 0
295 -631 -299 0
-295 -631 299 0
-295 631 296 0
296 632 -297 0
296 -632 -298 0
-296 -632 298 0
-296 632 297 0
297 633 -205 0
297 -633 -214 0
-297 -633 214 0
-297 633 205 0
298 633 -224 0
298 -633 -232 0
-298 -633 232 0
-298 633 224 0
299 632 -300 0
-299 -632 0
-299 300 0
300 633 -239 0
-300 -633 0
-300 239 0
301 629 -302 -322 0
301 -629 -317 -322 0
-301 322 0
-301 -629 317 0
-301 629 302 0
302 630 -303 0
302 -630 -310 0
-302 -630 310 0
-302 630 303 0
303 631 -304 0
303 -631 -307 0
-303 -631 307 0
-303 631 304 0
304 -632 -306 0
304 632 -305 0
-304 632 305 0
-304 -632 306 0
-305 590 633 0
-305 589 -633 0
305 -590 633 0
305 -589 -633 0
-306 588 633 0
-306 587 -633 0
306 -588 633 0
306 -587 -633 0
307 -632 -309 0
307 632 -308 0
-307 632 308 0
-307 -632 309 0
-308 586 633 0
-308 585 -633 0
308 -586 633 0
308 -585 -633 0
-309 584 633 0
-309 583 -633 0
309 -584 633 0
309 -583 -633 0
310 631 -311 0
310 -631 -314 0
-310 -631 314 0
-310 631 311 0
311 -632 -313 0
311 632 -312 0
-311 632 312 0
-311 -632 313 0
-312 582 633 0
-312 581 -633 0
312 -582 633 0
312 -581 -633 0
-313 580 633 0
-313 579 -633 0
313 -580 633 0
313 -579 -633 0
314 -632 -316 0
314 632 -315 0
-314 632 315 0
-314 -632 316 0
-315 578 633 0
-315 577 -633 0
315 -578 633 0
315 -577 -633 0
-316 576 633 0
-316 575 -633 0
316 -576 633 0
316 -575 -633 0
317 630 -318 0
-317 -630 0
-317 318 0
318 631 -319 0
318 -631 632 -243 0
-318 -631 -632 0
-318 631 319 0
-318 -631 243 0
319 -632 -321 0
319 632 -320 0
-319 632 320 0
-319 -632 321 0
-320 574 633 0
-320 573 -633 0
320 -574 633 0
320 -573 -633 0
-321 572 633 0
-321 571 -633 0
321 -572 633 0
321 -571 -633 0
322 -590 9 246 0
-322 590 0
-322 -9 0
-322 -246 0
-323 324 340 347 0
-323 -333 340 347 0
323 -347 0
323 -340 0
323 -324 333 0
324 -585 92 -325 0
-324 585 0
-324 -92 0
-324 325 0
325 630 -326 0
325 -630 -329 0
-325 -630 329 0
-325 630 326 0
326 631 -327 0
326 -631 -328 0
-326 -631 328 0
-326 631 327 0
327 -632 -267 0
327 632 -263 0
-327 632 263 0
-327 -632 267 0
328 -632 -270 0
328 632 -268 0
-328 632 268 0
-328 -632 270 0
329 631 -330 0
329 -631 -331 0
-329 -631 331 0
-329 631 330 0
330 -632 -274 0
330 632 -271 0
-330 632 271 0
-330 -632 274 0
331 -632 -332 0
331 632 -275 0
-331 632 275 0
-331 -632 332 0
-332 571 633 0
-332 570 -633 0
332 -571 633 0
332 -570 -633 0
333 630 -334 0
333 -630 -337 0
-333 -630 337 0
-333 630 334 0
334 631 -335 0
334 -631 -336 0
-334 -631 336 0
-334 631 335 0
335 632 -109 0
335 -632 -137 0
-335 -632 137 0
-335 632 109 0
336 632 -150 0
336 -632 -164 0
-336 -632 164 0
-336 632 150 0
337 631 -338 0
337 -631 -339 0
-337 -631 339 0
-337 631 338 0
338 632 -177 0
338 -632 -196 0
-338 -632 196 0
-338 632 177 0
339 632 -213 0
339 -632 -231 0
-339 -632 231 0
-339 632 213 0
340 -581 92 341 -344 0
-340 344 0
-340 581 0
-340 -92 0
-340 -341 0
341 630 -342 0
341 -630 -343 0
-341 -630 343 0
-341 630 342 0
342 631 -336 0
342 -631 -338 0
-342 -631 338 0
-342 631 336 0
343 631 -339 0
-343 -631 0
-343 339 0
344 630 -345 0
344 -630 -346 0
-344 -630 346 0
-344 630 345 0
345 631 -328 0
345 -631 -330 0
-345 -631 330 0
-345 631 328 0
346 631 -331 0
-346 -631 0
-346 331 0
-347 352 358 0
-347 92 -348 358 0
347 -358 0
347 348 -352 0
347 -92 -352 0
348 630 -349 0
-348 -630 0
-348 349 0
349 631 -350 0
349 -631 -351 0
-349 -631 351 0
-349 631 350 0
350 632 -293 0
350 -632 -297 0
-350 -632 297 0
-350 632 293 0
351 632 -298 0
351 -632 -300 0
-351 -632 300 0
-351 632 298 0
352 112 114 -353 -357 0
-352 357 0
-352 -112 0
-352 353 0
-352 -114 0
353 630 -354 0
-353 -630 0
-353 354 0
354 631 -355 0
354 -631 -356 0
-354 -631 356 0
-354 631 355 0
355 -632 -320 0
355 632 -316 0
-355 632 316 0
-355 -632 320 0
356 632 -321 0
356 -570 -632 633 0
-356 570 -632 0
-356 632 321 0
-356 -632 -633 0
357 -576 11 21 0
-357 576 0
-357 -11 0
-357 -21 0
-358 359 366 0
-358 359 -370 0
358 -359 0
358 -366 370 0
359 -578 92 -360 363 0
-359 360 0
-359 -363 0
-359 578 0
-359 -92 0
360 630 -361 0
360 -630 -362 0
-360 -630 362 0
-360 630 361 0
361 631 -314 0
361 -631 -319 0
-361 -631 319 0
-361 631 314 0
362 -570 631 632 633 0
-362 -633 0
-362 -632 0
-362 570 0
-362 -631 0
363 630 -364 0
363 -630 -365 0
-363 -630 365 0
-363 630 364 0
364 631 -291 0
364 -631 -296 0
-364 -631 296 0
-364 631 291 0
365 631 -299 0
-365 -631 0
-365 299 0
366 -579 92 -367 0
-366 579 0
-366 -92 0
-366 367 0
367 630 -368 0
367 -630 -369 0
-367 -630 369 0
-367 630 368 0
368 631 -269 0
368 -631 -273 0
-368 -631 273 0
-368 631 269 0
369 631 -276 0
-369 -631 0
-369 276 0
370 630 -371 0
370 -630 -372 0
-370 -630 372 0
-370 630 371 0
371 631 -163 0
371 -631 -195 0
-371 -631 195 0
-371 631 163 0
372 631 -230 0
-372 -631 0
-372 230 0
-373 374 388 395 0
-373 374 -391 395 0
373 -374 0
373 -395 0
373 -388 391 0
-374 375 380 0
-374 -377 378 380 0
374 -380 0
374 -375 377 0
374 -375 -378 0
375 -573 92 -376 0
-375 573 0
-375 -92 0
-375 376 0
376 630 -346 0
-376 -630 0
-376 346 0
377 630 -343 0
-377 -630 0
-377 343 0
-378 13 379 217 218 0
378 -218 0
378 -13 0
378 -217 0
378 -379 0
-379 629 27 0
379 -629 0
379 -27 0
-380 381 385 0
-380 378 381 -387 0
380 -381 0
380 -385 387 0
380 -378 -385 0
381 -571 92 -382 383 0
-381 382 0
-381 -383 0
-381 571 0
-381 -92 0
382 630 -369 0
-382 -630 0
-382 369 0
383 378 -384 0
-383 -378 0
-383 384 0
384 630 -372 0
-384 -630 0
-384 372 0
385 -570 92 -386 0
-385 570 0
-385 -92 0
-385 386 0
386 630 -362 0
-386 -630 0
-386 362 0
387 630 -365 0
-387 -630 0
-387 365 0
388 -629 111 -390 0
388 629 111 -389 0
-388 -111 0
-388 -629 390 0
-388 629 389 0
389 630 -72 0
389 -630 -135 0
-389 -630 135 0
-389 630 72 0
390 630 -194 0
-390 -630 0
-390 194 0
391 629 -392 -394 0
391 -629 -393 -394 0
-391 394 0
-391 -629 393 0
-391 629 392 0
392 630 -257 0
392 -630 -265 0
-392 -630 265 0
-392 630 257 0
393 630 -272 0
-393 -630 0
-393 272 0
394 -591 9 246 0
-394 591 0
-394 -9 0
-394 -246 0
395 92 -399 0
395 92 396 -397 0
395 92 -396 397 0
-395 -92 0
-395 396 397 399 0
-395 -396 -397 399 0
396 630 -337 0
-396 -630 0
-396 337 0
397 -577 -398 0
-397 577 0
-397 398 0
398 630 -329 0
-398 -630 0
-398 329 0
399 -348 352 0
-399 348 0
-399 -352 0
-400 401 445 452 477 0
400 -477 0
400 -452 0
400 -401 0
400 -445 0
-401 -92 402 0
-401 402 418 435 0
401 -402 0
401 92 -435 0
401 92 -418 0
402 -403 246 404 -411 0
-402 -404 0
-402 411 0
-402 403 0
-402 -246 0
403 -594 9 0
-403 594 0
-403 -9 0
-404 630 405 410 0
-404 405 409 410 0
404 -405 0
404 -410 0
404 -630 -409 0
-405 631 406 0
-405 -631 281 0
405 -631 -281 0
405 631 -406 0
406 632 -407 0
406 -632 -408 0
-406 -632 408 0
-406 632 407 0
407 633 -54 0
407 -633 -60 0
-407 -633 60 0
-407 633 54 0
408 633 -66 0
408 -633 -75 0
-408 -633 75 0
-408 633 66 0
409 631 -284 0
409 -631 -288 0
-409 -631 288 0
-409 631 284 0
410 -629 -363 0
-410 629 0
-410 363 0
-411 -629 360 0
-411 629 412 0
411 -629 -360 0
411 629 -412 0
-412 630 413 0
-412 -630 417 0
412 -630 -417 0
412 630 -413 0
-413 631 414 0
-413 -631 304 0
413 -631 -304 0
413 631 -414 0
414 -632 -416 0
414 632 -415 0
-414 632 415 0
-414 -632 416 0
-415 594 633 0
-415 593 -633 0
415 -594 633 0
415 -593 -633 0
-416 592 633 0
-416 591 -633 0
416 -592 633 0
416 -591 -633 0
417 631 -307 0
417 -631 -311 0
-417 -631 311 0
-417 631 307 0
-418 419 420 421 431 0
418 -431 0
418 -421 0
418 -419 0
418 -420 0
419 366 -370 0
-419 -366 0
-419 370 0
420 324 -333 0
-420 -324 0
-420 333 0
421 422 -427 0
-421 -422 0
-421 427 0
422 -584 92 -423 0
-422 584 0
-422 -92 0
-422 423 0
423 -630 -354 0
423 630 -424 0
-423 630 424 0
-423 -630 354 0
424 631 -425 0
424 -631 -426 0
-424 -631 426 0
-424 631 425 0
425 -632 -312 0
425 632 -309 0
-425 632 309 0
-425 -632 312 0
426 -632 -315 0
426 632 -313 0
-426 632 313 0
-426 -632 315 0
427 -630 -349 0
427 630 -428 0
-427 630 428 0
-427 -630 349 0
428 631 -429 0
428 -631 -430 0
-428 -631 430 0
-428 631 429 0
429 632 -286 0
429 -632 -289 0
-429 -632 289 0
-429 632 286 0
430 632 -290 0
430 -632 -292 0
-430 -632 292 0
-430 632 290 0
431 432 -434 0
-431 -432 0
-431 434 0
432 -582 92 -433 0
-432 582 0
-432 -92 0
-432 433 0
433 630 -310 0
433 -630 -318 0
-433 -630 318 0
-433 630 310 0
434 630 -287 0
434 -630 -295 0
-434 -630 295 0
-434 630 287 0
-435 133 410 436 437 0
435 -437 0
435 -436 0
435 -133 0
435 -410 0
436 -629 -341 0
-436 629 0
-436 341 0
437 438 -442 0
-437 -438 0
-437 442 0
438 -580 92 -439 0
-438 580 0
-438 -92 0
-438 439 0
439 630 -440 0
439 -630 -441 0
-439 -630 441 0
-439 630 440 0
440 -631 -355 0
440 631 -426 0
-440 631 426 0
-440 -631 355 0
441 631 -356 0
-441 -631 0
-441 356 0
442 630 -443 0
442 -630 -444 0
-442 -630 444 0
-442 630 443 0
443 -631 -350 0
443 631 -430 0
-443 631 430 0
-443 -631 350 0
444 631 -351 0
-444 -631 0
-444 351 0
445 629 446 -448 0
445 384 446 -448 0
-445 448 0
-445 -446 0
-445 -629 -384 0
-446 630 447 0
-446 -630 371 0
446 -630 -371 0
446 630 -447 0
447 631 -97 0
447 -631 -136 0
-447 -631 136 0
-447 631 97 0
448 -629 -382 -451 0
448 629 -449 -451 0
-448 451 0
-448 -629 382 0
-448 629 449 0
449 -630 -368 0
449 630 -450 0
-449 630 450 0
-449 -630 368 0
450 631 -261 0
450 -631 -266 0
-450 -631 266 0
-450 631 261 0
451 -587 111 0
-451 587 0
-451 -111 0
452 246 -453 454 -465 0
-452 -454 0
-452 465 0
-452 -246 0
-452 453 0
453 -600 9 0
-453 600 0
-453 -9 0
-454 421 455 462 0
-454 630 421 455 0
454 -455 0
454 -421 0
454 -630 -462 0
455 631 -456 0
455 -631 -460 0
-455 -631 460 0
-455 631 456 0
456 -632 -457 0
456 632 -458 0
-456 -632 457 0
-456 632 458 0
457 633 -28 0
457 -633 -35 0
-457 -633 35 0
-457 633 28 0
-458 633 459 0
-458 -633 8 0
458 -633 -8 0
458 633 -459 0
459 -600 9 20 -132 0
-459 132 0
-459 600 0
-459 -20 0
-459 -9 0
460 -632 -407 0
460 632 -461 0
-460 632 461 0
-460 -632 407 0
461 633 -41 0
461 -633 -49 0
-461 -633 49 0
-461 633 41 0
462 631 -463 0
462 -631 -464 0
-462 -631 464 0
-462 631 463 0
463 -632 -282 0
463 632 -408 0
-463 632 408 0
-463 -632 282 0
464 632 -283 0
464 -632 -285 0
-464 -632 285 0
-464 632 283 0
-465 -629 423 0
-465 629 466 0
465 -629 -423 0
465 629 -466 0
-466 630 467 0
-466 -630 474 0
466 -630 -474 0
466 630 -467 0
-467 631 468 0
-467 -631 472 0
467 -631 -472 0
467 631 -468 0
-468 -632 471 0
-468 632 469 470 0
468 632 -469 0
468 -632 -471 0
468 632 -470 0
469 -599 -633 0
-469 599 0
-469 633 0
470 -600 633 0
-470 600 0
-470 -633 0
-471 598 633 0
-471 597 -633 0
471 -598 633 0
471 -597 -633 0
472 632 -473 0
472 -632 -415 0
-472 -632 415 0
-472 632 473 0
-473 596 633 0
-473 595 -633 0
473 -596 633 0
473 -595 -633 0
474 631 -475 0
474 -631 -476 0
-474 -631 476 0
-474 631 475 0
475 632 -416 0
475 -632 -305 0
-475 -632 305 0
-475 632 416 0
476 -632 -308 0
476 632 -306 0
-476 632 306 0
-476 -632 308 0
-477 478 480 0
-477 378 478 -482 0
477 -478 0
477 -480 482 0
477 -378 -480 0
-478 -442 479 0
-478 438 479 0
478 -479 0
478 -438 442 0
479 -583 92 134 -264 0
-479 264 0
-479 583 0
-479 -92 0
-479 -134 0
480 -572 92 -481 0
-480 572 0
-480 -92 0
-480 481 0
481 630 -441 0
-481 -630 0
-481 441 0
482 630 -444 0
-482 -630 0
-482 444 0
-483 484 510 539 547 0
483 -547 0
483 -484 0
483 -539 0
483 -510 0
-484 -388 485 503 0
-484 391 485 503 0
484 -485 0
484 -503 0
484 388 -391 0
-485 486 -492 0
-485 486 501 0
-485 486 497 0
485 -486 0
485 492 -497 -501 0
486 -629 487 -490 0
486 487 -489 -490 0
-486 490 0
-486 -487 0
-486 629 489 0
487 629 111 -488 0
487 -629 111 -348 0
-487 -111 0
-487 -629 348 0
-487 629 488 0
488 -630 -428 0
488 630 -462 0
-488 630 462 0
-488 -630 428 0
489 -630 -424 0
489 630 -474 0
-489 630 474 0
-489 -630 424 0
490 629 -491 246 0
490 -491 246 -353 0
-490 -246 0
-490 491 0
-490 -629 353 0
491 -592 9 0
-491 592 0
-491 -9 0
492 629 111 -493 0
492 -629 111 -396 0
-492 -111 0
-492 -629 396 0
-492 629 493 0
493 -630 -334 0
493 630 -494 0
-493 630 494 0
-493 -630 334 0
494 631 -495 0
494 -631 -496 0
-494 -631 496 0
-494 631 495 0
495 632 -59 0
495 -632 -74 0
-495 -632 74 0
-495 632 59 0
496 632 -85 0
496 -632 -98 0
-496 -632 98 0
-496 632 85 0
-497 629 -630 326 0
-497 629 630 498 0
497 -629 0
497 -630 -326 0
497 630 -498 0
498 631 -499 0
498 -631 -500 0
-498 -631 500 0
-498 631 499 0
499 -632 -259 0
499 632 -256 0
-499 632 256 0
-499 -632 259 0
500 -632 -262 0
500 632 -260 0
-500 632 260 0
-500 -632 262 0
501 629 -502 246 0
501 -502 246 -398 0
-501 -246 0
-501 502 0
-501 -629 398 0
502 -593 9 0
-502 593 0
-502 -9 0
503 246 504 -507 -509 0
-503 509 0
-503 -246 0
-503 507 0
-503 -504 0
504 629 111 -505 0
504 -629 111 -377 0
-504 -111 0
-504 -629 377 0
-504 629 505 0
505 -630 -342 0
505 630 -506 0
-505 630 506 0
-505 -630 342 0
506 -631 -335 0
506 631 -496 0
-506 631 496 0
-506 -631 335 0
507 -630 -345 0
507 -629 630 0
507 630 -508 0
-507 -630 345 0
-507 629 630 508 0
508 -631 -327 0
508 631 -500 0
-508 631 500 0
-508 -631 327 0
509 -589 629 9 0
509 -589 9 -376 0
-509 589 0
-509 -9 0
-509 -629 376 0
-510 -511 517 0
-510 514 517 0
-510 516 517 0
510 -517 0
510 511 -514 -516 0
-511 -630 443 513 0
-511 630 512 513 0
511 -513 0
511 630 -512 0
511 -630 -443 0
512 -631 -429 0
512 631 -464 0
-512 631 464 0
-512 -631 429 0
513 -629 -482 0
-513 629 0
-513 482 0
-514 629 -630 440 0
-514 629 630 515 0
514 -629 0
514 -630 -440 0
514 630 -515 0
515 -631 -425 0
515 631 -476 0
-515 631 476 0
-515 -631 425 0
516 -588 629 111 0
516 -588 111 -481 0
-516 588 0
-516 -111 0
-516 -629 481 0
-517 -518 524 0
-517 -246 524 0
-517 520 524 0
517 -524 0
517 246 518 -520 0
-518 630 437 519 0
-518 437 512 519 0
518 -519 0
518 -437 0
518 -630 -512 0
-519 -631 463 0
-519 631 460 0
519 631 -460 0
519 -631 -463 0
520 629 -521 -522 0
520 -629 -521 -439 0
-520 521 0
-520 629 522 0
-520 -629 439 0
521 -596 9 0
-521 596 0
-521 -9 0
-522 -630 515 0
-522 630 523 0
522 -630 -515 0
522 630 -523 0
-523 -631 475 0
-523 631 472 0
523 631 -472 0
523 -631 -475 0
-524 -92 525 0
-524 294 525 538 0
-524 -294 525 -538 0
524 -525 0
524 92 -294 538 0
524 92 294 -538 0
525 629 526 -532 0
525 -325 526 -532 0
-525 532 0
-525 -526 0
-525 -629 325 0
-526 630 420 527 0
-526 420 494 527 0
526 -527 0
526 -420 0
526 -630 -494 0
527 -631 -528 0
527 631 -531 0
527 631 -529 0
-527 -631 528 0
-527 631 529 531 0
528 632 -34 0
528 -632 -48 0
-528 -632 48 0
-528 632 34 0
-529 633 530 0
-529 459 530 0
529 -530 0
529 -633 -459 0
530 602 92 -125 0
-530 125 0
-530 -92 0
-530 -602 0
531 -632 -7 0
-531 632 0
-531 7 0
532 -601 111 -533 0
532 -601 -629 111 0
-532 601 0
-532 -111 0
-532 629 533 0
533 -630 -498 0
533 630 -534 0
-533 630 534 0
-533 -630 498 0
534 631 -535 0
534 -631 -537 0
-534 -631 537 0
-534 631 535 0
535 632 -536 0
535 -632 -253 0
535 632 -38 0
-535 -632 253 0
-535 632 536 38 0
536 -600 -633 0
-536 600 0
-536 633 0
537 -632 -255 0
537 632 -252 0
-537 632 252 0
-537 -632 255 0
538 -574 -317 0
-538 574 0
-538 317 0
-539 -540 544 0
-539 542 544 0
-539 543 544 0
539 -544 0
539 540 -542 -543 0
-540 -630 364 541 0
-540 630 409 541 0
540 -541 0
540 630 -409 0
540 -630 -364 0
541 -629 -387 0
-541 629 0
-541 387 0
-542 629 -630 361 0
-542 629 630 417 0
542 -629 0
542 -630 -361 0
542 630 -417 0
543 -586 629 111 0
543 -586 111 -386 0
-543 586 0
-543 -111 0
-543 -629 386 0
-544 545 546 0
-544 92 -390 546 0
544 -546 0
544 390 -545 0
544 -92 -545 0
545 -575 9 21 -393 0
-545 393 0
-545 575 0
-545 -21 0
-545 -9 0
-546 -427 432 0
-546 422 -434 0
-546 422 432 0
-546 -427 -434 0
546 -422 427 0
546 -432 434 0
-547 -548 556 0
-547 -246 556 0
-547 551 556 0
547 -556 0
547 246 548 -551 0
-548 630 431 549 0
-548 280 431 549 0
548 -549 0
548 -431 0
548 -630 -280 0
549 -631 -406 0
549 631 -550 0
-549 631 550 0
-549 -631 406 0
550 632 -457 0
550 -632 -461 0
-550 -632 461 0
-550 632 457 0
551 629 -552 -553 0
551 -629 -552 -433 0
-551 552 0
-551 629 553 0
-551 -629 433 0
552 -598 9 0
-552 598 0
-552 -9 0
-553 -630 303 0
-553 630 554 0
553 -630 -303 0
553 630 -554 0
-554 -631 414 0
-554 631 555 0
554 -631 -414 0
554 631 -555 0
-555 632 471 0
-555 -632 473 0
555 -632 -473 0
555 632 -471 0
-556 557 566 0
-556 557 -564 0
-556 -246 557 0
556 -557 0
556 246 564 -566 0
557 -558 246 559 -561 0
-557 -559 0
-557 561 0
-557 558 0
-557 -246 0
558 -597 9 0
-558 597 0
-558 -9 0
-559 630 436 560 0
-559 436 506 560 0
559 -560 0
559 -436 0
559 -630 -506 0
560 -631 -495 0
560 631 -528 0
-560 631 528 0
-560 -631 495 0
-561 -629 344 0
-561 629 562 0
561 -629 -344 0
561 629 -562 0
-562 -630 508 0
-562 630 563 0
562 -630 -508 0
562 630 -563 0
-563 631 537 0
-563 -631 499 0
563 -631 -499 0
563 631 -537 0
-564 630 419 565 0
-564 419 447 565 0
564 -565 0
564 -419 0
564 -630 -447 0
-565 -631 73 0
-565 631 47 0
565 631 -47 0
565 -631 -73 0
566 629 -567 -568 0
566 -629 -567 -367 0
-566 567 0
-566 629 568 0
-566 -629 367 0
567 -595 9 0
-567 595 0
-567 -9 0
-568 -630 450 0
-568 630 569 0
568 -630 -450 0
568 630 -569 0
-569 -631 258 0
-569 631 254 0
569 631 -254 0
569 -631 -258 0
-634 0
2 0

